8	6	3	5	10	18	3	14	8	11	7	15	3	11	19	15	3	18	12	16	12	1	10	13	6	11	13	19	4	17	20	13	10	13	7	17	14	3	3	4	10	9	19	11	5	13	20	5	14	6
15	15	9	14	10	17	13	4	9	11	11	17	8	8	20	8	19	17	1	15	17	12	11	8	6	12	12	11	7	13	16	9	16	17	17	18	18	16	2	13	14	2	11	7	15	12	11	5	17	6
8	20	10	9	19	19	19	2	19	13	3	15	17	11	12	12	18	11	11	14	8	18	9	9	6	10	6	16	19	14	20	12	17	4	4	20	12	10	7	2	12	14	2	15	19	4	9	7	1	2
16	15	7	3	12	13	1	15	14	8	18	17	11	11	7	6	16	5	15	18	19	14	8	1	3	14	11	2	9	6	15	11	11	10	2	5	10	13	1	4	18	9	4	7	7	20	5	4	7	2
